100 8
459 403
869 484
616 277
181 840
779 877
665 910
898 491
314 528
724 167
641 863
212 856
564 19
127 749
632 162
721 528
510 360
142 211
521 207
241 685
822 248
692 907
382 629
532 306
22 708
169 859
701 180
816 245
208 652
461 449
539 894
883 233
384 468
412 434
862 553
335 564
447 703
557 292
479 578
445 376
527 612
126 550
832 170
698 398
103 700
439 374
353 647
658 832
231 792
536 714
355 442
689 246
537 134
100 742
361 671
455 592
285 732
106 766
429 464
316 517
117 205
399 432
477 404
544 430
118 671
533 311
519 645
466 383
821 148
473 504
713 815
854 886
897 857
507 564
463 464
220 604
842 166
932 862
929 972
550 689
215 227
779 391
742 476
346 435
465 417
585 249
138 691
892 929
268 300
638 804
910 841
219 304
358 560
295 641
554 683
787 572
601 326
265 270
595 324
442 369
559 383
